PARAMETER_FILE = even/LKH_uncomplete_graph/x5/de/par/random96.par
PROBLEM_FILE = even/LKH_uncomplete_graph/x5/de/mat/random96.tsp
Successes/Runs = 0/10
Cost.min = 760, Cost.avg = 760.00, Cost.max = 760
Gap.min = 0.0000%, Gap.avg = 0.0000%, Gap.max = 0.0000%
Trials.min = 1000, Trials.avg = 1000.0, Trials.max = 1000
Time.min = 0.35 sec., Time.avg = 0.46 sec., Time.max = 0.59 sec.
Time.total = 4.67 sec.
请按任意键继续. . . 
